unsat
(a11_11$2@ a11_10$0@ a11_8$1@ a11_5$0@ a11_4$2@ a11_4$1@ a11_1$2@ a10_8$2@ a10_5$2@ a5_2$2@ a5_2$1@ a5_1$3@ a4_11$2@ a4_11$1@ a4_9$0@ a1_9$0@ a1_7$3@ a1_6$3@ a1_2$0@ a0_0$0@ obs-10-6 obs-10-3 obs-9-7 obs-8-4 obs-8-3 obs-7-9 obs-7-3 obs-7-2 obs-7-1 obs-6-10 obs-6-7 obs-6-6 obs-5-6 obs-5-3 obs-4-7 obs-4-6 obs-4-3 obs-4-1 obs-2-8 obs-2-4 obs-2-3 obs-1-4 obs-1-8)
(error "line 408209 column 10: model is not available")
